peakDumbCharging = 7400; 
Machine = anon_enum(16); 
machineSpeed = [3700,3700,3700,3700,3700,3700,3700,3700,3700,3700,3700,3700,3700,3700,3700,3700]; 
machineLoad = [3700,3700,3700,3700,3700,3700,3700,3700,3700,3700,3700,3700,3700,3700,3700,3700]; 
Car = anon_enum(8); 
demandCar = [4880,4120,8160,880,5320,7880,6200,2320]; 
arrivalCar = [76,67,62,60,59,54,41,30]; 
departureCar = [79,69,66,62,62,60,45,32]; 
